119 48 011 1
1
982 113 1
901 114 1
745 115 1
788 116 1
828 117 1
871 118 1
769 119 1
769 108 1
818 109 1
775 110 1
851 111 1
968 112 1
710 113 1
1132 114 1
832 115 1
814 116 1
849 117 1
773 118 1
761 119 1
780 108 1
745 109 1
799 110 1
783 111 1
767 112 1
927 113 1
781 114 1
690 115 1
758 116 1
843 117 1
1078 118 1
935 119 1
968 108 1
858 109 1
874 110 1
864 111 1
714 112 1
765 113 1
636 114 1
811 115 1
638 116 1
919 117 1
765 118 1
884 119 1
829 108 1
1060 109 1
1007 110 1
915 111 1
878 112 1
1
1
1
1
1
1
1
1
1
1
1
1
1
1
1
1
1
1
1
1
1
1
1
1
1
1
1
1
1
1
1
1
1
1
1
1
1
1
1
1
1
1
1
1
1
1
1
1
1
1
1
1
1
1
1
1
1
1
1 9 768 21 779 33 967 45 828
1 10 817 22 744 34 857 46 1059
1 11 774 23 798 35 873 47 1006
1 12 850 24 782 36 863 48 914
1 13 967 25 766 37 713 49 877
1 2 981 14 709 26 926 38 764
1 3 900 15 1131 27 780 39 635
1 4 744 16 831 28 689 40 810
1 5 787 17 813 29 757 41 637
1 6 827 18 848 30 842 42 918
1 7 870 19 772 31 1077 43 764
1 8 768 20 760 32 934 44 883
